NAME:26_13
TYPE: TSP
DIMENSION: 26
EDGE_WEIGHT_TYPE: EXPLICIT
EDGE_WEIGHT_FORMAT: UPPER_ROW
EDGE_WEIGHT_SECTION
504 504 504 504 504 504 504 504 504 504 504 504 0 178 217 182 189 248 168 168 224 168 172 176 176 504 504 504 504 504 504 504 504 504 504 504 186 0 207 200 203 242 182 178 214 174 174 174 170 504 504 504 504 504 504 504 504 504 504 207 197 0 217 168 203 207 207 175 203 203 203 199 504 504 504 504 504 504 504 504 504 186 168 203 0 203 238 182 178 210 174 174 174 170 504 504 504 504 504 504 504 504 207 217 252 221 0 231 207 207 231 207 211 215 215 504 504 504 504 504 504 504 172 182 189 182 189 0 172 172 168 172 176 180 180 504 504 504 504 504 504 172 178 217 186 189 252 0 168 224 168 172 176 176 504 504 504 504 504 176 178 217 190 193 252 172 0 224 168 172 176 176 504 504 504 504 200 210 189 210 189 196 200 200 0 200 204 208 208 504 504 504 180 178 217 194 197 252 176 172 224 0 172 176 176 504 504 180 174 213 194 197 248 176 172 220 168 0 172 172 504 180 170 209 194 197 244 176 172 216 168 168 0 168 184 170 209 198 201 244 180 176 216 172 172 172 0 504 504 504 504 504 504 504 504 504 504 504 504 504 504 504 504 504 504 504 504 504 504 504 504 504 504 504 504 504 504 504 504 504 504 504 504 504 504 504 504 504 504 504 504 504 504 504 504 504 504 504 504 504 504 504 504 504 504 504 504 504 504 504 504 504 504 504 504 504 504 504 504 504 504 504 504 504 504 